unsat
(define-fun f ((x (_ BitVec 64))) (_ BitVec 64) (bvor #b0000000000000000000000000000000000000000000000000000000000000001 (smol x)))
0.33user 0.01system 0:00.34elapsed 100%CPU (0avgtext+0avgdata 55408maxresident)k
0inputs+8outputs (0major+8582minor)pagefaults 0swaps
